proyfinal/src/viki/013/andrea/andrea-localstore/experimentInOfficeAgust.take6/worker_10/faebf47b-2bef-4965-9c71-45b9715a6c3a.als.cnf.out
Reading from standard input... Use '--help' for help.
============================[ Problem Statistics ]=============================
|                                                                             |
|  Number of variables:         87638                                         |
|  Number of clauses:          161767                                         |
|  Parse time:                   0.03 s                                       |
|                                                                             |
============================[ Search Statistics ]==============================
| Conflicts |          ORIGINAL         |          LEARNT          | Progress |
|           |    Vars  Clauses Literals |    Limit  Clauses Lit/Cl |          |
===============================================================================
|       100 |   63384   109073   271828 |    39993      100     10 | 27.675 % |
|       250 |   63384   109073   271828 |    43992      250     52 | 27.675 % |
|       475 |   63384   109073   271828 |    48392      475     59 | 27.675 % |
|       812 |   63384   109073   271828 |    53231      812     57 | 27.675 % |
|      1318 |   63354   108953   271545 |    58554     1316     60 | 27.709 % |
|      2077 |   63354   108953   271545 |    64409     2075     62 | 27.709 % |
|      3216 |   63354   108953   271545 |    70850     3214     67 | 27.709 % |
|      4924 |   63353   108909   271455 |    77935     4920     64 | 27.711 % |
|      7486 |   63353   108909   271455 |    85729     7482     66 | 27.711 % |
|     11330 |   63327   108766   271143 |    94302    10198     63 | 27.740 % |
|     17096 |   58270    92182   230381 |   103732    15266     66 | 33.511 % |
===============================================================================
restarts              : 67
conflicts             : 19735          (8584 /sec)
decisions             : 62877          (0.00 % random) (27348 /sec)
propagations          : 26277825       (11429519 /sec)
conflict literals     : 1323700        (49.56 % deleted)
Memory used           : 27.10 MB
CPU time              : 2.29912 s

UNSATISFIABLE
